NAME : test
TYPE : CVRP
DIMENSION : 5
EDGE_WEIGHT_TYPE : EUC_2D
CAPACITY : 40
NODE_COORD_SECTION
1 40 40
2 22 22
3 36 26
4 21 45
5 45 35
DEMAND_SECTION
1 0
2 18
3 26
4 11
5 30
DEPOT_SECTION
 1
 -1
EOF